     Program PWSCF v.6.4 starts on  1Aug2020 at  9:21:33

     R & G space division:  proc/nbgrp/npool/nimage =      32
     Waiting for input...
     Reading input from standard input

     Current dimensions of program PWSCF are:
     Max number of different atomic species (ntypx) = 10
     Max number of k-points (npk) =  40000
     Max angular momentum in pseudopotentials (lmaxx) =  3
               file Pb.pbe-dn-kjpaw_psl.1.0.0.UPF: wavefunction(s)  6S 6P 5D renormalized
               file I.pbe-n-kjpaw_psl.1.0.0.UPF: wavefunction(s)  5S renormalized
               file C.pbe-n-kjpaw_psl.1.0.0.UPF: wavefunction(s)  2S 2P renormalized
               file N.pbe-n-kjpaw_psl.1.0.0.UPF: wavefunction(s)  2S renormalized
               file H.pbe-kjpaw_psl.1.0.0.UPF: wavefunction(s)  1S renormalized

     Parameters for DFT-D3 Dispersion Correction:
       Reference C6 values for interpolation:

         atom   Coordination number   C6
         H          0.912             6.05
         H          0.000            15.18
         C          0.000            98.23
         C          0.987            86.49
         C          1.998            58.72
         C          2.999            51.56
         C          3.984            36.41
         N          0.000            50.54
         N          0.994            44.25
         N          2.014            39.35
         N          2.990            31.16
         I          0.000           703.93
         I          0.997           717.00
         Pb         0.000          1477.63
         Pb         0.938          1266.00
         Pb         1.936          1088.91
         Pb         2.908          1048.37
         Pb         3.910           910.57

       Values used:

         atom   Coordination number  R0_AB[au]  C6      C8
         Pb         4.814            4.041    910.57 144158.38
         Pb         4.819            4.041    910.57 144158.37
         Pb         4.795            4.041    910.57 144158.43
         Pb         4.798            4.041    910.57 144158.42
         Pb         4.805            4.041    910.57 144158.40
         Pb         4.790            4.041    910.57 144158.44
         Pb         4.819            4.041    910.57 144158.37
         Pb         4.819            4.041    910.57 144158.37
         I          1.917            3.532    717.00  65855.99
         I          1.937            3.532    717.00  65855.99
         I          1.889            3.532    717.00  65855.99
         I          1.913            3.532    717.00  65855.99
         I          1.941            3.532    717.00  65855.99
         I          2.020            3.532    717.00  65856.00
         I          2.042            3.532    717.00  65856.00
         I          1.970            3.532    717.00  65856.00
         I          1.909            3.532    717.00  65855.99
         I          2.044            3.532    717.00  65856.00
         I          1.963            3.532    717.00  65856.00
         I          2.001            3.532    717.00  65856.00
         I          2.043            3.532    717.00  65856.00
         I          1.965            3.532    717.00  65856.00
         I          2.002            3.532    717.00  65856.00
         I          2.043            3.532    717.00  65856.00
         I          1.969            3.532    717.00  65856.00
         I          1.908            3.532    717.00  65855.99
         I          1.914            3.532    717.00  65855.99
         I          1.943            3.532    717.00  65855.99
         I          2.022            3.532    717.00  65856.00
         I          1.917            3.532    717.00  65855.99
         I          1.938            3.532    717.00  65855.99
         I          1.888            3.532    717.00  65855.99
         C          3.105            2.750     50.85   1470.79
         C          4.041            2.750     36.59   1058.15
         C          4.039            2.750     36.59   1058.21
         C          4.040            2.750     36.59   1058.20
         C          4.040            2.750     36.59   1058.20
         C          4.039            2.750     36.59   1058.21
         C          4.041            2.750     36.59   1058.13
         C          3.105            2.750     50.86   1470.82
         N          3.098            2.478     31.24    689.08
         N          3.100            2.478     31.23    689.06
         N          4.054            2.478     31.16    687.49
         N          4.051            2.478     31.16    687.49
         N          4.057            2.478     31.16    687.49
         N          4.057            2.478     31.16    687.49
         N          4.051            2.478     31.16    687.49
         N          4.054            2.478     31.16    687.49
         N          3.098            2.478     31.24    689.08
         N          3.100            2.478     31.23    689.06
         H          1.028            2.062      6.16     74.44
         H          1.048            2.062      6.14     74.27
         H          1.041            2.062      6.15     74.32
         H          1.024            2.062      6.16     74.48
         H          1.032            2.062      6.15     74.40
         H          1.057            2.062      6.14     74.20
         H          1.017            2.062      6.17     74.54
         H          1.061            2.062      6.14     74.17
         H          1.021            2.062      6.16     74.50
         H          1.009            2.062      6.17     74.62
[...]
         H          1.034            2.062      6.15     74.38
         H          1.014            2.062      6.17     74.57
         H          1.013            2.062      6.17     74.58
         H          1.014            2.062      6.17     74.57
         H          1.058            2.062      6.14     74.19
         H          1.017            2.062      6.17     74.54
         H          1.061            2.062      6.14     74.17
         H          1.021            2.062      6.16     74.50
         H          1.009            2.062      6.17     74.62
         H          1.022            2.062      6.16     74.50
         H          1.028            2.062      6.16     74.44
         H          1.048            2.062      6.14     74.27
         H          1.041            2.062      6.15     74.32
         H          1.024            2.062      6.16     74.48
         H          1.032            2.062      6.15     74.40

         Molecular C6 ( Ry / a.u.^6 ) =   1214711.67

     Subspace diagonalization in iterative solution of the eigenvalue problem:
     a serial algorithm will be used

     bravais-lattice index     =            0
     lattice parameter (alat)  =      23.3952  a.u.
     unit-cell volume          =   13359.3075 (a.u.)^3
     number of atoms/cell      =           96
     number of atomic types    =            5
     number of electrons       =       408.00
     number of Kohn-Sham states=          204
     kinetic-energy cutoff     =     120.0000  Ry
     charge density cutoff     =     480.0000  Ry
     convergence threshold     =      1.0E-07
     mixing beta               =       0.7000
     number of iterations used =            8  plain     mixing
     Exchange-correlation      = SLA PW PBX PBC ( 1  4  3  4 0 0)
     nstep                     =          200

     celldm(1)=  23.395153  celldm(2)=   0.000000  celldm(3)=   0.000000
     celldm(4)=   0.000000  celldm(5)=   0.000000  celldm(6)=   0.000000

     crystal axes: (cart. coord. in units of alat)
               a(1) = (   1.000000   0.000000   0.000000 )
               a(2) = (   0.000000   1.005478   0.000000 )
               a(3) = (   0.000000   0.000000   1.037609 )

     reciprocal axes: (cart. coord. in units 2 pi/alat)
               b(1) = (  1.000000  0.000000  0.000000 )
               b(2) = (  0.000000  0.994552  0.000000 )
               b(3) = (  0.000000  0.000000  0.963754 )

     PseudoPot. # 1 for Pb read from file:
     ../../../../Pseudopotential/Pb.pbe-dn-kjpaw_psl.1.0.0.UPF
     MD5 check sum: 684fc8fbce61a260853528575e4d9ab7
     Pseudo is Projector augmented-wave + core cor, Zval = 14.0
     Generated using "atomic" code by A. Dal Corso v.6.3
     Shape of augmentation charge: PSQ
     Using radial grid of 1281 points,  6 beta functions with:
                l(1) =   0
                l(2) =   0
                l(3) =   1
                l(4) =   1
                l(5) =   2
                l(6) =   2
     Q(r) pseudized with 0 coefficients

     PseudoPot. # 2 for I  read from file:
     ../../../../Pseudopotential/I.pbe-n-kjpaw_psl.1.0.0.UPF
     MD5 check sum: cd3d296c3308a581e1559a0c8a554cb5
     Pseudo is Projector augmented-wave + core cor, Zval =  7.0
     Generated using "atomic" code by A. Dal Corso v.6.3
     Shape of augmentation charge: PSQ
     Using radial grid of 1247 points,  6 beta functions with:
                l(1) =   0
                l(2) =   0
                l(3) =   1
                l(4) =   1
                l(5) =   2
                l(6) =   2
     Q(r) pseudized with 0 coefficients

     PseudoPot. # 3 for C  read from file:
     ../../../../Pseudopotential/C.pbe-n-kjpaw_psl.1.0.0.UPF
     MD5 check sum: 5f16ad9a65e90284d1d834d4ab3b0f7d
     Pseudo is Projector augmented-wave + core cor, Zval =  4.0
     Generated using "atomic" code by A. Dal Corso v.6.3
     Shape of augmentation charge: PSQ
     Using radial grid of 1073 points,  4 beta functions with:
                l(1) =   0
                l(2) =   0
                l(3) =   1
                l(4) =   1
     Q(r) pseudized with 0 coefficients

     PseudoPot. # 4 for N  read from file:
     ../../../../Pseudopotential/N.pbe-n-kjpaw_psl.1.0.0.UPF
     MD5 check sum: 14c48229446f9f2d411169a3abcbc3fa
     Pseudo is Projector augmented-wave + core cor, Zval =  5.0
     Generated using "atomic" code by A. Dal Corso v.6.3
     Shape of augmentation charge: PSQ
     Using radial grid of 1085 points,  4 beta functions with:
                l(1) =   0
                l(2) =   0
                l(3) =   1
                l(4) =   1
     Q(r) pseudized with 0 coefficients

     PseudoPot. # 5 for H  read from file:
     ../../../../Pseudopotential/H.pbe-kjpaw_psl.1.0.0.UPF
     MD5 check sum: d81a744832360e4a8af0b0b5b123bc2a
     Pseudo is Projector augmented-wave, Zval =  1.0
     Generated using "atomic" code by A. Dal Corso v.6.3MaX
     Shape of augmentation charge: PSQ
     Using radial grid of  929 points,  2 beta functions with:
                l(1) =   0
                l(2) =   0
     Q(r) pseudized with 0 coefficients

     atomic species   valence    mass     pseudopotential
        Pb            14.00   207.97600     Pb( 1.00)
        I              7.00   126.90400     I ( 1.00)
        C              4.00    12.00000     C ( 1.00)
        N              5.00    14.00300     N ( 1.00)
        H              1.00     1.00700     H ( 1.00)

     No symmetry found

   Cartesian axes

     site n.     atom                  positions (alat units)
[...]
C        0.787358024   0.777612401   0.254128145
C        0.752372081   0.786925075   0.753441789
N        0.151985909   0.252526012   0.253364071
N        0.339375604   0.226601657   0.253294434
N        0.194215003   0.201048811   0.754809288
N        0.259066884   0.675438163   0.252107836
N        0.233011388   0.692084725   0.752451390
N        0.733047957   0.191977671   0.252521462
N        0.758943441   0.175259091   0.752233659
N        0.694603800   0.700723134   0.254559162
N        0.652211912   0.752516529   0.753329652
N        0.839629361   0.726528782   0.753162925
H        0.264671167   0.373603196   0.253826130
H        0.129871864   0.173337073   0.253207807
H        0.091795108   0.308653554   0.253646551
H        0.337912858   0.144809751   0.253001359
H        0.412924756   0.263508806   0.253347495
H        0.195425951   0.152386122   0.688876658
H        0.121221786   0.241177344   0.755946609
H        0.197198238   0.151751931   0.820328175
H        0.281128211   0.328043441   0.684426312
H        0.362254777   0.230937087   0.752436222
[...]
H        0.804144164   0.153678864   0.816912447
H        0.691217568   0.313419280   0.682948658
H        0.815138279   0.335571632   0.752779969
H        0.691916373   0.312867436   0.823310831
H        0.696199790   0.652153903   0.188568634
H        0.621462689   0.740581106   0.255495029
H        0.697411012   0.651476121   0.320099278
H        0.781397344   0.828026800   0.184602634
H        0.862467165   0.731275955   0.252862465
H        0.782936859   0.826775343   0.324585594
H        0.764899169   0.873507591   0.753837269
H        0.629918103   0.673278617   0.753049323
H        0.592085078   0.808764009   0.753794039
H        0.838152190   0.644755845   0.752780963
H        0.913098988   0.763433901   0.753450157

     Writing output data file 025FA2_vcrelax.save/
     NEW-OLD atomic charge density approx. for the potential
     extrapolated charge  407.95739, renormalised to  408.00000

[...]

     Threshold (ethr) on eigenvalues was too large:
     Diagonalizing with lowered threshold

     Davidson diagonalization with overlap
     ethr =  7.76E-09,  avg # of iterations =  5.0

[...]

     enthalpy old            =  -16545.2439850577 Ry
     enthalpy new            =  -16545.2440041663 Ry

     CASE: enthalpy_new < enthalpy_old

[...]

     Threshold (ethr) on eigenvalues was too large:
     Diagonalizing with lowered threshold

     Davidson diagonalization with overlap
     ethr =  3.17E-08,  avg # of iterations =  2.8

[...]

     End of self-consistent calculation

[...]

          k =-0.3763 0.3744-0.3600 (296527 PWs)   bands (ev):

[...]

          k = 0.3763-0.3744-0.3600 (296527 PWs)   bands (ev):

   -17.6986 -17.6968 -17.3125 -17.3012 -17.2998 -17.2964 -17.2407 -17.2359
   -15.5550 -15.5535 -14.0820 -14.0811 -14.0773 -14.0744 -14.0625 -14.0614
   -14.0602 -14.0593 -14.0578 -14.0573 -14.0545 -14.0528 -14.0464 -14.0446
   -14.0430 -14.0402 -14.0391 -14.0387 -14.0386 -14.0377 -14.0367 -14.0366
   -14.0329 -14.0315 -14.0240 -14.0234 -14.0227 -14.0217 -14.0216 -14.0200
   -14.0185 -14.0171 -14.0167 -14.0161 -14.0160 -14.0112 -14.0015 -14.0001
   -13.9991 -13.9935 -10.2704 -10.2675 -10.2512 -10.2483 -10.2291 -10.2214
    -9.5538  -9.5489  -9.3811  -9.3385  -9.3204  -9.2923  -9.2692  -9.2643
    -9.2245  -9.2106  -9.0326  -9.0234  -9.0051  -8.9959  -8.9498  -8.9476
    -8.9265  -8.9223  -8.8762  -8.8670  -8.8550  -8.8474  -8.8109  -8.7918
    -8.7813  -8.7702  -7.5427  -7.5380  -6.9658  -6.9649  -6.7681  -6.7664
    -6.7563  -6.7495  -6.7358  -6.7326  -6.7297  -6.7259  -6.7185  -6.7160
    -6.6646  -6.6632  -5.3219  -5.2157  -5.2113  -5.1752  -5.1553  -5.1204
    -5.0122  -4.9829  -4.9679  -4.8283  -4.6048  -4.6000  -4.5758  -4.5723
    -4.5697  -4.5631  -3.6617  -3.6600  -3.1200  -3.1196  -2.6157  -2.6114
    -2.5936  -2.5923  -2.5884  -2.5807  -2.5764  -2.5678  -2.5361  -2.5266
    -2.5119  -2.5066  -0.3273  -0.3224  -0.2972  -0.2746  -0.2081  -0.1740
    -0.1349  -0.1260  -0.1056  -0.0534  -0.0368  -0.0133   0.1309   0.1512
     0.2373   0.2841   0.3255   0.3354   0.3528   0.3712   0.4051   0.4283
     0.4779   0.5030   0.5503   0.5518   0.7423   0.7837   0.8124   0.8256
     0.8547   0.8734   0.9003   0.9291   0.9563   0.9578   1.0028   1.0165
     1.0576   1.0684   1.0880   1.1112   1.1796   1.1937   1.2316   1.2434
     1.2665   1.2862   1.3203   1.3355   1.4033   1.4042   1.4237   1.4517
     1.4720   1.4845   1.5305   1.5343   1.5518   1.5746   1.6161   1.6339
     1.6746   1.6994   1.7279   1.7542   1.8198   1.8292   1.8461   1.8598
     1.8974   1.9165   1.9662   1.9874

     highest occupied level (ev):     2.2523

!    total energy              =  -16545.24550670 Ry
     Harris-Foulkes estimate   =  -16545.24550670 Ry
     estimated scf accuracy    <          3.7E-10 Ry

     total all-electron energy =   -677464.512376 Ry

     The total energy is the sum of the following terms:

     one-electron contribution =    -822.52970218 Ry
     hartree contribution      =     603.43549519 Ry
     xc contribution           =    -765.77530481 Ry
     ewald contribution        =   -1189.57780553 Ry
     DFT-D3 Dispersion         =      -0.65381410 Ry
     one-center paw contrib.   =  -14370.14437528 Ry

     convergence has been achieved in  10 iterations

     Forces acting on atoms (cartesian axes, Ry/au):

     atom    1 type  1   force =    -0.00007962   -0.00015631    0.00084626
     atom    2 type  1   force =    -0.00027689   -0.00024554    0.00023051
     atom    3 type  1   force =    -0.00019656    0.00035869    0.00010802
     atom    4 type  1   force =    -0.00036036    0.00035187   -0.00030537
     atom    5 type  1   force =     0.00002084    0.00058069   -0.00023619
     atom    6 type  1   force =    -0.00040856    0.00022219    0.00025698
     atom    7 type  1   force =    -0.00035880   -0.00005780    0.00006013
     atom    8 type  1   force =     0.00003902    0.00009099    0.00053584
     atom    9 type  2   force =     0.00040388   -0.00065156   -0.00002839
     atom   10 type  2   force =     0.00039465    0.00013931    0.00051035
     atom   11 type  2   force =     0.00034771   -0.00039837   -0.00113729
     atom   12 type  2   force =     0.00084979   -0.00073244   -0.00006647
     atom   13 type  2   force =     0.00052111    0.00036537   -0.00032369
     atom   14 type  2   force =     0.00017968   -0.00022542   -0.00034544
     atom   15 type  2   force =    -0.00005110    0.00062507    0.00010718
     atom   16 type  2   force =    -0.00066217   -0.00036103   -0.00034805
     atom   17 type  2   force =     0.00005866    0.00013778   -0.00035248
     atom   18 type  2   force =     0.00021752    0.00027581    0.00005034
     atom   19 type  2   force =    -0.00047649   -0.00032930    0.00039168
     atom   20 type  2   force =    -0.00072538   -0.00030259    0.00035740
     atom   21 type  2   force =    -0.00031026    0.00035448    0.00015926
     atom   22 type  2   force =    -0.00061164   -0.00067972    0.00039335
     atom   23 type  2   force =    -0.00069327   -0.00015191   -0.00028912
     atom   24 type  2   force =    -0.00013554    0.00049781    0.00023137
     atom   25 type  2   force =    -0.00065174   -0.00013333   -0.00037922
     atom   26 type  2   force =     0.00009855    0.00016247   -0.00002093
     atom   27 type  2   force =     0.00064221   -0.00069371   -0.00005270
     atom   28 type  2   force =     0.00063823   -0.00004845   -0.00033254
     atom   29 type  2   force =     0.00026656    0.00001096   -0.00025192
     atom   30 type  2   force =     0.00001171   -0.00073372   -0.00002403
     atom   31 type  2   force =     0.00052158   -0.00013775    0.00051809
     atom   32 type  2   force =     0.00031358   -0.00038189   -0.00053112
     atom   33 type  3   force =     0.00128940   -0.00038681   -0.00000764
     atom   34 type  3   force =    -0.00021791   -0.00021004    0.00023800
     atom   35 type  3   force =    -0.00020766   -0.00018013    0.00018790
     atom   36 type  3   force =    -0.00049206   -0.00030326   -0.00046250
     atom   37 type  3   force =    -0.00015738   -0.00016889   -0.00010368
     atom   38 type  3   force =    -0.00015432    0.00010503    0.00052160
     atom   39 type  3   force =     0.00016427   -0.00017344   -0.00015183
     atom   40 type  3   force =     0.00249751   -0.00076366    0.00008448
     atom   41 type  4   force =     0.00047512    0.00009169    0.00003933
     atom   42 type  4   force =     0.00092706   -0.00034680    0.00000152
     atom   43 type  4   force =     0.00048878    0.00025550   -0.00052597
     atom   44 type  4   force =    -0.00008126    0.00091509    0.00002382
     atom   45 type  4   force =     0.00050313    0.00059877    0.00073101
     atom   46 type  4   force =     0.00046604    0.00043552    0.00026968
     atom   47 type  4   force =     0.00020257    0.00075523    0.00047363
     atom   48 type  4   force =    -0.00011106   -0.00012642   -0.00028338
     atom   49 type  4   force =    -0.00090946   -0.00096466    0.00017301
     atom   50 type  4   force =    -0.00053161    0.00162034    0.00012356
     atom   51 type  5   force =    -0.00200145    0.00057954   -0.00001367
     atom   52 type  5   force =    -0.00041514    0.00009208    0.00005193
     atom   53 type  5   force =     0.00077802   -0.00003206    0.00002409
     atom   54 type  5   force =    -0.00123289   -0.00149279   -0.00005235
     atom   55 type  5   force =     0.00069451    0.00094723    0.00007414
     atom   56 type  5   force =    -0.00019419    0.00011481    0.00026237
     atom   57 type  5   force =    -0.00005566    0.00050789    0.00013626
     atom   58 type  5   force =     0.00021252    0.00100291   -0.00080141
     atom   59 type  5   force =    -0.00025262   -0.00088471    0.00023284
     atom   60 type  5   force =    -0.00018069   -0.00012415    0.00027575
[...]
     atom   82 type  5   force =    -0.00017600   -0.00060117   -0.00028727
     atom   83 type  5   force =    -0.00014320    0.00082705    0.00020748
     atom   84 type  5   force =     0.00026298   -0.00085048   -0.00133433
     atom   85 type  5   force =    -0.00127078   -0.00115848   -0.00049354
     atom   86 type  5   force =    -0.00032630   -0.00055417   -0.00002266
     atom   87 type  5   force =    -0.00049783    0.00142523   -0.00035788
     atom   88 type  5   force =     0.00084258    0.00018560   -0.00058119
     atom   89 type  5   force =    -0.00098450    0.00034963    0.00033284
     atom   90 type  5   force =     0.00024653   -0.00113968    0.00114237
     atom   91 type  5   force =     0.00116374    0.00031359   -0.00023833
     atom   92 type  5   force =    -0.00187111    0.00068207   -0.00001957
     atom   93 type  5   force =    -0.00019998   -0.00005274   -0.00000388
     atom   94 type  5   force =     0.00045035    0.00066434   -0.00014164
     atom   95 type  5   force =    -0.00034519   -0.00109804   -0.00010472
     atom   96 type  5   force =     0.00147546   -0.00050488   -0.00004826

     Total force =     0.009301     Total SCF correction =     0.000072

     Computing stress (Cartesian axis) and pressure

          total   stress  (Ry/bohr**3)                   (kbar)     P=   -0.11
   0.00000047   0.00000745   0.00000024          0.07      1.10      0.04
   0.00000745   0.00000016  -0.00000000          1.10      0.02     -0.00
   0.00000024  -0.00000000  -0.00000287          0.04     -0.00     -0.42

     number of scf cycles    =  26
     number of bfgs steps    =  25

     enthalpy old            =  -16545.2453823756 Ry
     enthalpy new            =  -16545.2455066970 Ry

     CASE: enthalpy_new < enthalpy_old

     new trust radius        =       0.0418259574 bohr
     new conv_thr            =       0.0000000012 Ry

     new unit-cell volume =  13311.24728 a.u.^3 (  1972.52331 Ang^3 )
     density =      4.20232 g/cm^3

CELL_PARAMETERS (angstrom)
  12.332079873   0.000000000   0.000000000
   0.000000000  12.399560801   0.000000000
   0.000000000   0.000000000  12.899697112

ATOMIC_POSITIONS (crystal)
Pb       0.000986080  -0.007530636   0.002039879
Pb       0.001541044  -0.007054611   0.502963091
Pb      -0.001150796   0.494979160   0.001173865
Pb      -0.001280084   0.495018757   0.505554959
Pb       0.498405999  -0.005243801   0.005533206
Pb       0.498895116  -0.004972746   0.501094375
Pb       0.501543981   0.492533368   0.003267856
Pb       0.500973572   0.492441601   0.502419882
I        0.248337330   0.073758288   0.004446446
I       -0.064986236   0.238970045  -0.023104485
I       -0.020229372   0.014036650   0.254120296
I        0.247855295   0.074594320   0.503322194
I       -0.065698288   0.238881939   0.527959520
I        0.002408197  -0.017601091   0.753600583
I        0.249163274   0.436322562   0.016053320
I        0.075331014   0.739293194  -0.014964212
I        0.008718113   0.515237530   0.253273339
I        0.249237026   0.437021071   0.490288245
I        0.074822325   0.739526509   0.520884248
I        0.024767694   0.477571290   0.752931787
I        0.749440554  -0.063110745  -0.009750613
I        0.575115753   0.239797446   0.020855237
I        0.524672280  -0.022513356   0.253335822
I        0.749179597  -0.063329232   0.516046745
I        0.575266845   0.239274631   0.485136209
I        0.508617400   0.015142916   0.753298254
I        0.748016837   0.574440846   0.003168317
I        0.434132247   0.739275373   0.027993016
I        0.502209837   0.482189757   0.253440092
I        0.748482709   0.573856631   0.504294006
I        0.434835245   0.739060094   0.477037976
I        0.479966113   0.513954337   0.753628107
C        0.254642571   0.286003572   0.253171119
C        0.291842306   0.274360851   0.753534665
C        0.232829102   0.796845304   0.252810395
C        0.289020194   0.796676306   0.752490086
C        0.788912563   0.296677943   0.252447499
C        0.732853373   0.296721701   0.752720839
C        0.791712207   0.774359934   0.253664737
C        0.754602318   0.785876950   0.753061368
N        0.153629923   0.252561209   0.253108607
N        0.341373479   0.224441351   0.253236293
N        0.191610222   0.206480348   0.754260992
N        0.260823965   0.679470291   0.252445614
N        0.235577046   0.688455489   0.752864054
N        0.735492888   0.188513766   0.252988204
N        0.760816337   0.179402096   0.752303132
N        0.691818076   0.706262242   0.254101592
N        0.653632001   0.752527893   0.753019645
N        0.841370436   0.724294663   0.753042054
H        0.269033544   0.372618988   0.253178685
H        0.130978625   0.173177299   0.253084265
H        0.093488241   0.309278512   0.253173009
H        0.339611013   0.142366176   0.253271057
H        0.415384689   0.260881971   0.253156271
H        0.188737429   0.157433107   0.688811297
H        0.122612161   0.253835570   0.754880052
H        0.189700405   0.157278242   0.819663330
H        0.290665601   0.324980787   0.684086801
H        0.362450055   0.220891529   0.752588417
[...]
H        0.806735114   0.160648068   0.817292154
H        0.684822405   0.313992389   0.683431033
H        0.808312735   0.343215521   0.752226248
H        0.687082727   0.314427266   0.823318413
H        0.689230176   0.657442457   0.188618363
H        0.622563642   0.753250307   0.254719368
H        0.689703185   0.657040324   0.319401720
H        0.790847720   0.824756407   0.184146809
H        0.862601701   0.721344642   0.252633761
H        0.791228906   0.824199358   0.323541328
H        0.769184605   0.872448248   0.753123938
H        0.630926456   0.673112353   0.753059955
H        0.593574193   0.809280717   0.753446295
H        0.839561452   0.642246538   0.753154438
H        0.915174479   0.761123653   0.753248943

     Writing output data file 025FA2_vcrelax.save/
     NEW-OLD atomic charge density approx. for the potential
     extrapolated charge  407.96116, renormalised to  408.00000

     Self-consistent Calculation

[...]

     iteration #  6     ecut=   120.00 Ry     beta= 0.70
     Davidson diagonalization with overlap
     ethr =  3.49E-09,  avg # of iterations =  4.2

     total energy              =  -16545.24564641 Ry
     Harris-Foulkes estimate   =  -16545.24564672 Ry
     estimated scf accuracy    <       0.00000054 Ry

     iteration #  7     ecut=   120.00 Ry     beta= 0.70
     Davidson diagonalization with overlap

     max_seconds     =  600000.00
     Calculation stopped in k-point loop, point #    15
     Calculation stopped in scf loop at iteration #     6

     Writing output data file 025FA2_vcrelax.save/

     General routines

     Parallel routines

   This run was terminated on:   8: 2:40   8Aug2020

   JOB DONE.