     Program PWSCF v.6.4 starts on  1Aug2020 at  1:13:39

     R & G space division:  proc/nbgrp/npool/nimage =      32
     Waiting for input...
     Reading input from standard input

     Current dimensions of program PWSCF are:
     Max number of different atomic species (ntypx) = 10
     Max number of k-points (npk) =  40000
     Max angular momentum in pseudopotentials (lmaxx) =  3
               file Pb.pbe-dn-kjpaw_psl.1.0.0.UPF: wavefunction(s)  6S 6P 5D renormalized
               file I.pbe-n-kjpaw_psl.1.0.0.UPF: wavefunction(s)  5S renormalized
               file C.pbe-n-kjpaw_psl.1.0.0.UPF: wavefunction(s)  2S 2P renormalized
               file N.pbe-n-kjpaw_psl.1.0.0.UPF: wavefunction(s)  2S renormalized
               file H.pbe-kjpaw_psl.1.0.0.UPF: wavefunction(s)  1S renormalized

     Parameters for DFT-D3 Dispersion Correction:
       Reference C6 values for interpolation:

         atom   Coordination number   C6
         H          0.912             6.05
         H          0.000            15.18
         C          0.000            98.23
         C          0.987            86.49
         C          1.998            58.72
         C          2.999            51.56
         C          3.984            36.41
         N          0.000            50.54
         N          0.994            44.25
         N          2.014            39.35
         N          2.990            31.16
         I          0.000           703.93
         I          0.997           717.00
         Pb         0.000          1477.63
         Pb         0.938          1266.00
         Pb         1.936          1088.91
         Pb         2.908          1048.37
         Pb         3.910           910.57

       Values used:

         atom   Coordination number  R0_AB[au]  C6      C8
         Pb         4.809            4.041    910.57 144158.39
         Pb         4.836            4.041    910.57 144158.34
         Pb         4.751            4.041    910.57 144158.56
         Pb         4.801            4.041    910.57 144158.41
         Pb         4.765            4.041    910.57 144158.51
         Pb         4.830            4.041    910.57 144158.35
         Pb         4.871            4.041    910.57 144158.28
         Pb         4.768            4.041    910.57 144158.50
         I          1.968            3.532    717.00  65856.00
         I          1.948            3.532    717.00  65855.99
         I          1.906            3.532    717.00  65855.99
         I          1.962            3.532    717.00  65856.00
         I          1.883            3.532    717.00  65855.99
         I          1.942            3.532    717.00  65855.99
         I          2.000            3.532    717.00  65856.00
         I          1.976            3.532    717.00  65856.00
         I          1.899            3.532    717.00  65855.99
         I          1.969            3.532    717.00  65856.00
         I          1.936            3.532    717.00  65855.99
         I          1.972            3.532    717.00  65856.00
         I          1.913            3.532    717.00  65855.99
         I          1.962            3.532    717.00  65856.00
         I          1.970            3.532    717.00  65856.00
         I          1.934            3.532    717.00  65855.99
         I          1.926            3.532    717.00  65855.99
         I          1.990            3.532    717.00  65856.00
         I          1.950            3.532    717.00  65855.99
         I          1.972            3.532    717.00  65856.00
         I          1.918            3.532    717.00  65855.99
         I          1.929            3.532    717.00  65855.99
         I          1.986            3.532    717.00  65856.00
         I          1.961            3.532    717.00  65856.00
         C          3.066            2.750     51.07   1477.01
         C          3.071            2.750     51.04   1476.19
         C          3.078            2.750     51.01   1475.23
         C          3.073            2.750     51.03   1475.95
         C          3.077            2.750     51.01   1475.31
         C          3.072            2.750     51.04   1476.11
         C          3.070            2.750     51.05   1476.45
         C          3.067            2.750     51.06   1476.88
         N          3.102            2.478     31.23    689.04
         N          3.101            2.478     31.23    689.05
         N          3.102            2.478     31.23    689.04
         N          3.105            2.478     31.23    689.00
         N          3.102            2.478     31.23    689.04
         N          3.100            2.478     31.23    689.06
         N          3.104            2.478     31.23    689.01
         N          3.104            2.478     31.23    689.01
         N          3.104            2.478     31.23    689.01
         N          3.107            2.478     31.23    688.98
         N          3.105            2.478     31.23    689.00
         N          3.106            2.478     31.23    688.99
         N          3.104            2.478     31.23    689.01
         N          3.102            2.478     31.23    689.04
         N          3.104            2.478     31.23    689.01
         N          3.106            2.478     31.23    688.99
         H          1.015            2.062      6.17     74.56
         H          1.018            2.062      6.17     74.53
         H          1.022            2.062      6.16     74.50
         H          1.017            2.062      6.17     74.54
[...]
         H          1.027            2.062      6.16     74.45
         H          1.041            2.062      6.15     74.33
         H          1.028            2.062      6.16     74.43
         H          1.053            2.062      6.14     74.23
         H          1.058            2.062      6.14     74.19
         H          1.056            2.062      6.14     74.21
         H          1.026            2.062      6.16     74.46
         H          1.047            2.062      6.14     74.27
         H          1.071            2.062      6.13     74.10
         H          1.059            2.062      6.14     74.18
         H          1.076            2.062      6.13     74.07
         H          1.035            2.062      6.15     74.37
         H          1.037            2.062      6.15     74.36
         H          1.049            2.062      6.14     74.26
         H          1.080            2.062      6.13     74.04

         Molecular C6 ( Ry / a.u.^6 ) =   1270598.53

     Subspace diagonalization in iterative solution of the eigenvalue problem:
     a serial algorithm will be used

     bravais-lattice index     =            0
     lattice parameter (alat)  =      23.9433  a.u.
     unit-cell volume          =   13877.8677 (a.u.)^3
     number of atoms/cell      =           96
     number of atomic types    =            5
     number of electrons       =       432.00
     number of Kohn-Sham states=          216
     kinetic-energy cutoff     =     120.0000  Ry
     charge density cutoff     =     480.0000  Ry
     convergence threshold     =      1.0E-07
     mixing beta               =       0.7000
     number of iterations used =            8  plain     mixing
     Exchange-correlation      = SLA PW PBX PBC ( 1  4  3  4 0 0)
     nstep                     =          200

     celldm(1)=  23.943308  celldm(2)=   0.000000  celldm(3)=   0.000000
     celldm(4)=   0.000000  celldm(5)=   0.000000  celldm(6)=   0.000000

     crystal axes: (cart. coord. in units of alat)
               a(1) = (   1.000000   0.000000   0.000000 )
               a(2) = (   0.000000   1.015207   0.000000 )
               a(3) = (   0.000000   0.000000   0.995900 )

     reciprocal axes: (cart. coord. in units 2 pi/alat)
               b(1) = (  1.000000  0.000000  0.000000 )
               b(2) = (  0.000000  0.985021  0.000000 )
               b(3) = (  0.000000  0.000000  1.004117 )

     PseudoPot. # 1 for Pb read from file:
     ../../../Pseudopotential/Pb.pbe-dn-kjpaw_psl.1.0.0.UPF
     MD5 check sum: 684fc8fbce61a260853528575e4d9ab7
     Pseudo is Projector augmented-wave + core cor, Zval = 14.0
     Generated using "atomic" code by A. Dal Corso v.6.3
     Shape of augmentation charge: PSQ
     Using radial grid of 1281 points,  6 beta functions with:
                l(1) =   0
                l(2) =   0
                l(3) =   1
                l(4) =   1
                l(5) =   2
                l(6) =   2
     Q(r) pseudized with 0 coefficients

     PseudoPot. # 2 for I  read from file:
     ../../../Pseudopotential/I.pbe-n-kjpaw_psl.1.0.0.UPF
     MD5 check sum: cd3d296c3308a581e1559a0c8a554cb5
     Pseudo is Projector augmented-wave + core cor, Zval =  7.0
     Generated using "atomic" code by A. Dal Corso v.6.3
     Shape of augmentation charge: PSQ
     Using radial grid of 1247 points,  6 beta functions with:
                l(1) =   0
                l(2) =   0
                l(3) =   1
                l(4) =   1
                l(5) =   2
                l(6) =   2
     Q(r) pseudized with 0 coefficients

     PseudoPot. # 3 for C  read from file:
     ../../../Pseudopotential/C.pbe-n-kjpaw_psl.1.0.0.UPF
     MD5 check sum: 5f16ad9a65e90284d1d834d4ab3b0f7d
     Pseudo is Projector augmented-wave + core cor, Zval =  4.0
     Generated using "atomic" code by A. Dal Corso v.6.3
     Shape of augmentation charge: PSQ
     Using radial grid of 1073 points,  4 beta functions with:
                l(1) =   0
                l(2) =   0
                l(3) =   1
                l(4) =   1
     Q(r) pseudized with 0 coefficients

     PseudoPot. # 4 for N  read from file:
     ../../../Pseudopotential/N.pbe-n-kjpaw_psl.1.0.0.UPF
     MD5 check sum: 14c48229446f9f2d411169a3abcbc3fa
     Pseudo is Projector augmented-wave + core cor, Zval =  5.0
     Generated using "atomic" code by A. Dal Corso v.6.3
     Shape of augmentation charge: PSQ
     Using radial grid of 1085 points,  4 beta functions with:
                l(1) =   0
                l(2) =   0
                l(3) =   1
                l(4) =   1
     Q(r) pseudized with 0 coefficients

     PseudoPot. # 5 for H  read from file:
     ../../../Pseudopotential/H.pbe-kjpaw_psl.1.0.0.UPF
     MD5 check sum: d81a744832360e4a8af0b0b5b123bc2a
     Pseudo is Projector augmented-wave, Zval =  1.0
     Generated using "atomic" code by A. Dal Corso v.6.3MaX
     Shape of augmentation charge: PSQ
     Using radial grid of  929 points,  2 beta functions with:
                l(1) =   0
                l(2) =   0
     Q(r) pseudized with 0 coefficients

     atomic species   valence    mass     pseudopotential
        Pb            14.00   207.97600     Pb( 1.00)
        I              7.00   126.90400     I ( 1.00)
        C              4.00    12.00000     C ( 1.00)
        N              5.00    14.00300     N ( 1.00)
        H              1.00     1.00700     H ( 1.00)

     No symmetry found

   Cartesian axes

     site n.     atom                  positions (alat units)
[...]
N        0.192405072   0.717259385   0.821239332
N        0.704150086   0.200720284   0.838601452
N        0.685509699   0.744958700   0.808290379
N        0.316044144   0.238438948   0.310410633
N        0.845732803   0.195122613   0.294708486
N        0.350171672   0.720898987   0.272837176
N        0.336972037   0.192218575   0.710618679
N        0.826470568   0.737959986   0.304025065
N        0.319503521   0.716752934   0.688014760
N        0.816461492   0.233002720   0.696452024
N        0.838495932   0.690192505   0.723338906
H        0.189340141   0.326974743   0.263067988
H        0.752740870   0.323363041   0.324281592
H        0.235755126   0.758192124   0.381838783
H        0.248598851   0.324490459   0.687952409
[...]
H        0.861222396   0.128524834   0.253586958
H        0.371663126   0.695269376   0.199267732
H        0.350807337   0.123909136   0.749413964
H        0.839990010   0.659240475   0.302847217
H        0.334591510   0.638478790   0.692984569
H        0.862288705   0.168574073   0.709802555
H        0.847189446   0.625976866   0.770004235
H        0.333650392   0.290008968   0.369486798
H        0.896639201   0.214082257   0.354853845
H        0.408550827   0.744580516   0.323614249
H        0.390133333   0.214104734   0.653484037
H        0.877579670   0.783009355   0.346396845
H        0.364436186   0.758513161   0.635868464
H        0.833966022   0.281355809   0.634561789
H        0.893376554   0.703374284   0.665186254

     Writing output data file FAPbI83_vcrelax.save/
     NEW-OLD atomic charge density approx. for the potential
     extrapolated charge  432.06126, renormalised to  432.00000

[...]

     Threshold (ethr) on eigenvalues was too large:
     Diagonalizing with lowered threshold

     Davidson diagonalization with overlap
     ethr =  2.70E-08,  avg # of iterations =  4.5

[...]

     enthalpy old            =  -16707.4777135280 Ry
     enthalpy new            =  -16707.4779479014 Ry

     CASE: enthalpy_new < enthalpy_old

[...]

     End of self-consistent calculation

[...]

          k =-0.3748 0.3686-0.3760 (308045 PWs)   bands (ev):

[...]

          k = 0.3748-0.3686-0.3760 (308045 PWs)   bands (ev):

   -17.9020 -17.8548 -17.8374 -17.8241 -17.7999 -17.7973 -17.7948 -17.7894
   -15.6806 -15.6281 -15.6214 -15.5911 -15.5753 -15.5685 -15.5655 -15.5504
   -14.2953 -14.2882 -14.2632 -14.2621 -14.2599 -14.2551 -14.2513 -14.2489
   -14.2475 -14.2432 -14.2388 -14.2379 -14.2328 -14.2288 -14.2275 -14.2235
   -14.2213 -14.2192 -14.2191 -14.2177 -14.2146 -14.2140 -14.2111 -14.2085
   -14.2042 -14.2020 -14.2006 -14.1965 -14.1964 -14.1944 -14.1939 -14.1886
   -14.1802 -14.1789 -14.1776 -14.1699 -14.1606 -14.1581 -14.1449 -14.1414
    -9.7468  -9.7058  -9.6850  -9.6586  -9.6279  -9.6088  -9.5907  -9.5835
    -9.4317  -9.3881  -9.3754  -9.3650  -9.3530  -9.3121  -9.2907  -9.2779
    -9.1657  -9.1326  -9.1183  -9.0960  -9.0737  -9.0709  -9.0535  -9.0445
    -9.0277  -9.0080  -8.9871  -8.9787  -8.9598  -8.9345  -8.9056  -8.8615
    -7.7209  -7.6781  -7.6604  -7.6391  -7.6201  -7.6133  -7.6073  -7.6019
    -7.0610  -7.0103  -6.9880  -6.9783  -6.9665  -6.9624  -6.9592  -6.9236
    -5.5122  -5.4057  -5.3771  -5.3554  -5.3398  -5.3243  -5.3008  -5.2868
    -5.2713  -5.2661  -5.2611  -5.2431  -5.1673  -5.1401  -5.1148  -4.9762
    -3.8523  -3.8002  -3.7874  -3.7802  -3.7609  -3.7529  -3.7504  -3.7428
    -3.2932  -3.2589  -3.2372  -3.2300  -3.2165  -3.2091  -3.2053  -3.1967
    -0.4767  -0.4495  -0.4217  -0.3869  -0.3716  -0.3333  -0.3153  -0.2928
    -0.2696  -0.2443  -0.2028  -0.1675  -0.1455  -0.1039  -0.0829  -0.0477
    -0.0304  -0.0224  -0.0010   0.0421   0.1568   0.1876   0.2172   0.2354
     0.2724   0.3112   0.3292   0.3520   0.3778   0.3981   0.4327   0.4748
     0.7063   0.7163   0.7465   0.7596   0.7936   0.8198   0.8580   0.8886
     0.9028   0.9179   0.9303   0.9533   0.9841   0.9985   1.0137   1.0404
     1.0849   1.0989   1.1041   1.1266   1.1441   1.1530   1.1782   1.1981
     1.3021   1.3213   1.3333   1.3651   1.3844   1.3946   1.4098   1.4236
     1.4413   1.4680   1.4854   1.4909   1.5083   1.5248   1.5394   1.5498
     1.5687   1.5854   1.6078   1.6301   1.6568   1.6725   1.6960   1.7331

     highest occupied level (ev):     2.1340

!    total energy              =  -16707.47885341 Ry
     Harris-Foulkes estimate   =  -16707.47885341 Ry
     estimated scf accuracy    <          3.5E-09 Ry

     total all-electron energy =   -678114.538538 Ry

     The total energy is the sum of the following terms:

     one-electron contribution =    -941.50594376 Ry
     hartree contribution      =     670.73756114 Ry
     xc contribution           =    -795.80661057 Ry
     ewald contribution        =   -1222.27022331 Ry
     DFT-D3 Dispersion         =      -0.64731018 Ry
     one-center paw contrib.   =  -14417.98632672 Ry

     convergence has been achieved in   9 iterations

     Forces acting on atoms (cartesian axes, Ry/au):

     atom    1 type  1   force =     0.00081052    0.00013356    0.00050452
     atom    2 type  1   force =     0.00067118    0.00057083    0.00138234
     atom    3 type  1   force =    -0.00059980    0.00092595    0.00025527
     atom    4 type  1   force =     0.00216600   -0.00015528   -0.00061471
     atom    5 type  1   force =     0.00024840   -0.00003657   -0.00045437
     atom    6 type  1   force =    -0.00054441   -0.00153214   -0.00080440
     atom    7 type  1   force =    -0.00104388   -0.00064947   -0.00083034
     atom    8 type  1   force =     0.00002575   -0.00004019   -0.00026870
     atom    9 type  2   force =     0.00072430   -0.00030427    0.00047479
     atom   10 type  2   force =    -0.00141801    0.00036053   -0.00000737
     atom   11 type  2   force =    -0.00065538    0.00009713    0.00034603
     atom   12 type  2   force =    -0.00283100    0.00089561    0.00045533
     atom   13 type  2   force =     0.00040787   -0.00033184    0.00023945
     atom   14 type  2   force =     0.00059467   -0.00005663    0.00072152
     atom   15 type  2   force =     0.00107585    0.00025753    0.00084922
     atom   16 type  2   force =    -0.00010802    0.00074475    0.00020990
     atom   17 type  2   force =    -0.00058244   -0.00015738    0.00070793
     atom   18 type  2   force =    -0.00019810   -0.00122119   -0.00124981
     atom   19 type  2   force =     0.00041322   -0.00055704    0.00004107
     atom   20 type  2   force =     0.00100932   -0.00001525   -0.00107437
     atom   21 type  2   force =     0.00025889   -0.00004615    0.00035346
     atom   22 type  2   force =    -0.00040618    0.00092343    0.00048191
     atom   23 type  2   force =     0.00080584    0.00178592    0.00063846
     atom   24 type  2   force =     0.00019948   -0.00118490    0.00098848
     atom   25 type  2   force =    -0.00001616   -0.00057672    0.00036210
     atom   26 type  2   force =    -0.00001792   -0.00039915   -0.00175435
     atom   27 type  2   force =     0.00056032    0.00011637   -0.00029047
     atom   28 type  2   force =    -0.00129688    0.00003455   -0.00097540
     atom   29 type  2   force =     0.00025085    0.00008505    0.00076916
     atom   30 type  2   force =     0.00001480   -0.00011871    0.00016541
     atom   31 type  2   force =     0.00045762    0.00027206    0.00055944
     atom   32 type  2   force =    -0.00028448   -0.00008480   -0.00045123
     atom   33 type  3   force =    -0.00123153   -0.00032941   -0.00142234
     atom   34 type  3   force =    -0.00032483    0.00007255   -0.00016641
     atom   35 type  3   force =     0.00120896    0.00008626   -0.00007040
     atom   36 type  3   force =    -0.00005591    0.00030292    0.00055118
     atom   37 type  3   force =    -0.00148950   -0.00037646   -0.00140812
     atom   38 type  3   force =    -0.00081103    0.00004083   -0.00045189
     atom   39 type  3   force =    -0.00089783   -0.00039015    0.00115971
     atom   40 type  3   force =     0.00042777    0.00015596    0.00024543
     atom   41 type  4   force =     0.00046877    0.00097067    0.00106856
     atom   42 type  4   force =     0.00049920   -0.00037094    0.00023621
     atom   43 type  4   force =    -0.00112558    0.00029878   -0.00067924
     atom   44 type  4   force =     0.00035269   -0.00016395   -0.00052520
     atom   45 type  4   force =     0.00156475   -0.00010244    0.00059712
     atom   46 type  4   force =     0.00072912    0.00005725    0.00012035
     atom   47 type  4   force =     0.00072235    0.00060852   -0.00089709
     atom   48 type  4   force =     0.00003481   -0.00022428   -0.00018952
     atom   49 type  4   force =     0.00050073    0.00015478    0.00046723
     atom   50 type  4   force =     0.00002349    0.00017573    0.00004361
     atom   51 type  4   force =    -0.00008831    0.00008073    0.00013096
     atom   52 type  4   force =    -0.00011350   -0.00027326   -0.00024417
     atom   53 type  4   force =     0.00035511   -0.00094403    0.00085840
     atom   54 type  4   force =    -0.00000927    0.00017339    0.00030619
     atom   55 type  4   force =     0.00054546   -0.00009734   -0.00019809
     atom   56 type  4   force =    -0.00022316    0.00033416   -0.00032248
     atom   57 type  5   force =     0.00010005    0.00029759   -0.00019403
     atom   58 type  5   force =     0.00028906   -0.00025161   -0.00000740
     atom   59 type  5   force =     0.00051396    0.00027568    0.00026422
     atom   60 type  5   force =     0.00019179   -0.00039359   -0.00006549
[...]
     atom   82 type  5   force =    -0.00016513    0.00061337    0.00034489
     atom   83 type  5   force =    -0.00023143   -0.00034624   -0.00026514
     atom   84 type  5   force =    -0.00058087    0.00027748    0.00002500
     atom   85 type  5   force =     0.00009469    0.00005014    0.00067113
     atom   86 type  5   force =     0.00022944    0.00062028   -0.00018459
     atom   87 type  5   force =    -0.00075957    0.00011397    0.00066066
     atom   88 type  5   force =    -0.00015989    0.00050074   -0.00025507
     atom   89 type  5   force =     0.00013572   -0.00027059   -0.00014705
     atom   90 type  5   force =    -0.00004396    0.00018274   -0.00022366
     atom   91 type  5   force =     0.00035555   -0.00015080    0.00055177
     atom   92 type  5   force =    -0.00076299    0.00048424    0.00039969
     atom   93 type  5   force =    -0.00098355   -0.00040495    0.00005601
     atom   94 type  5   force =    -0.00056135   -0.00035742    0.00028374
     atom   95 type  5   force =    -0.00093274   -0.00002670    0.00064198
     atom   96 type  5   force =    -0.00030808    0.00019039    0.00029700

     Total force =     0.006907     Total SCF correction =     0.000086

     Computing stress (Cartesian axis) and pressure

          total   stress  (Ry/bohr**3)                   (kbar)     P=   -0.10
  -0.00000278   0.00000138  -0.00000119         -0.41      0.20     -0.17
   0.00000138   0.00000023   0.00000065          0.20      0.03      0.10
  -0.00000119   0.00000065   0.00000053         -0.17      0.10      0.08

     number of scf cycles    =   8
     number of bfgs steps    =   7

     enthalpy old            =  -16707.4788028350 Ry
     enthalpy new            =  -16707.4788534088 Ry

     CASE: enthalpy_new < enthalpy_old

     new trust radius        =       0.0084229250 bohr
     new conv_thr            =       0.0000000051 Ry

     new unit-cell volume =  13940.67461 a.u.^3 (  2065.79482 Ang^3 )
     density =      4.07526 g/cm^3

CELL_PARAMETERS (angstrom)
  12.674417197   0.000000000   0.000000000
   0.000000000  12.894747259   0.000000000
   0.000000000   0.000000000  12.639978958

ATOMIC_POSITIONS (crystal)
Pb      -0.017919245  -0.025333182   0.009907256    0   0   0
Pb       0.479141497  -0.015309899   0.002440253    0   0   0
Pb      -0.019919125   0.478557324   0.008910468    0   0   0
Pb       0.023066357  -0.014286739   0.511896417    0   0   0
Pb       0.481794014   0.482893928  -0.002909891    0   0   0
Pb       0.023171772   0.482079104   0.506147720    0   0   0
Pb       0.524913543  -0.012748532   0.499723336    0   0   0
Pb       0.523134474   0.487085512   0.499961247    0   0   0
I        0.232236978  -0.009253433  -0.046227615    0   0   0
I        0.733061929  -0.007372028   0.045707250    0   0   0
I        0.232839918   0.490700478   0.049148251    0   0   0
I        0.274277431  -0.036510733   0.531304924    0   0   0
I        0.733145861   0.494019714  -0.054440609    0   0   0
I        0.271482128   0.479689227   0.459108662    0   0   0
I        0.772752003  -0.021860656   0.475093126    0   0   0
I        0.771918271   0.467485562   0.540210815    0   0   0
I       -0.030127446   0.232837982   0.006744798    0   0   0
I        0.469482873   0.236283899   0.005330564    0   0   0
I       -0.030516659   0.732350478   0.007978223    0   0   0
I        0.040608141   0.231778658   0.505624520    0   0   0
I        0.462821605   0.735980758   0.001351499    0   0   0
I        0.030645486   0.729915675   0.512700543    0   0   0
I        0.532766645   0.233522485   0.503420708    0   0   0
I        0.540200289   0.734504180   0.491575923    0   0   0
I        0.034448085  -0.029530743   0.257968751    0   0   0
I        0.459737787  -0.006562972   0.252997863    0   0   0
I       -0.049964260   0.483640634   0.258646227    0   0   0
I       -0.043267511  -0.013820069   0.758623122    0   0   0
I        0.551206169   0.479392775   0.245530304    0   0   0
I        0.047578718   0.477534865   0.758079514    0   0   0
I        0.531343505  -0.024480474   0.753844921    0   0   0
I        0.455054883   0.474287192   0.746797467    0   0   0
C        0.234666006   0.256131079   0.248205448
C        0.763244522   0.254107603   0.275187810
C        0.251506719   0.724587007   0.303590821
C        0.256329321   0.252400116   0.732756252
C        0.748317366   0.780903050   0.252140803
C        0.253626396   0.764073618   0.752320727
C        0.734887227   0.255615197   0.756603197
C        0.759335108   0.755011628   0.735932880
N        0.204225710   0.195471693   0.170483826
N        0.692735998   0.236303590   0.201181811
N        0.170587759   0.692160397   0.247624570
N        0.184541985   0.232397211   0.804942871
N        0.676058686   0.729920229   0.198753124
N        0.192528824   0.717120022   0.821288994
N        0.703600037   0.200769476   0.838390563
N        0.685410852   0.745026519   0.808073692
N        0.316166466   0.238620011   0.309713320
N        0.845434712   0.195130117   0.294768683
N        0.350268119   0.720548189   0.272553358
N        0.337445403   0.192642089   0.711132834
N        0.825798990   0.737520460   0.304913218
N        0.319568084   0.716677537   0.688379766
N        0.816465443   0.233077569   0.696771002
N        0.838639400   0.690496837   0.723669802
H        0.189123852   0.326593718   0.262726433
H        0.752662892   0.323313704   0.323966154
H        0.235135397   0.758289152   0.381191827
H        0.248181808   0.324333227   0.687866984
[...]
H        0.861660260   0.128711231   0.253873669
H        0.372431393   0.695199842   0.199198088
H        0.350839717   0.123760386   0.748529204
H        0.840422970   0.659315277   0.303395699
H        0.334541238   0.638641606   0.692883079
H        0.862749855   0.168927907   0.709267026
H        0.847445850   0.625911117   0.769497575
H        0.332631941   0.290146980   0.368814888
H        0.896626447   0.214206248   0.354418184
H        0.408475617   0.743939609   0.323349406
H        0.390415188   0.213490976   0.653556448
H        0.877066062   0.782949298   0.346385784
H        0.363655749   0.758807660   0.636172898
H        0.834007128   0.280405822   0.634379388
H        0.893267006   0.703271661   0.665416095

     Writing output data file FAPbI83_vcrelax.save/
     NEW-OLD atomic charge density approx. for the potential
     extrapolated charge  432.27429, renormalised to  432.00000

     Self-consistent Calculation

     iteration #  1     ecut=   120.00 Ry     beta= 0.70
     Davidson diagonalization with overlap
     ethr =  1.00E-06,  avg # of iterations =  3.0

     Threshold (ethr) on eigenvalues was too large:
     Diagonalizing with lowered threshold

     Davidson diagonalization with overlap
     ethr =  6.77E-08,  avg # of iterations =  2.6

     total energy              =  -16707.47841885 Ry
     Harris-Foulkes estimate   =  -16707.03295400 Ry
     estimated scf accuracy    <       0.00030877 Ry

     max_seconds     =  256000.00
     Calculation stopped in scf loop at iteration #     1

     Writing output data file FAPbI83_vcrelax.save/

     General routines

     Parallel routines

   This run was terminated on:   0:23:23   4Aug2020

   JOB DONE.