     Program PWSCF v.6.4 starts on  2May2020 at 22:20: 2

     K-points division:     npool     =       4
     R & G space division:  proc/nbgrp/npool/nimage =       8
     Waiting for input...
     Reading input from standard input
     Message from routine read_cards :
     DEPRECATED: no units specified in CELL_PARAMETERS card

     Current dimensions of program PWSCF are:
     Max number of different atomic species (ntypx) = 10
     Max number of k-points (npk) =  40000
     Max angular momentum in pseudopotentials (lmaxx) =  3
               file Pb.pbe-dn-kjpaw_psl.1.0.0.UPF: wavefunction(s)  6S 6P 5D renormalized
               file I.pbe-n-kjpaw_psl.1.0.0.UPF: wavefunction(s)  5S renormalized
               file C.pbe-n-kjpaw_psl.1.0.0.UPF: wavefunction(s)  2S 2P renormalized
               file N.pbe-n-kjpaw_psl.1.0.0.UPF: wavefunction(s)  2S renormalized
               file H.pbe-kjpaw_psl.1.0.0.UPF: wavefunction(s)  1S renormalized

     Parameters for DFT-D3 Dispersion Correction:
       Reference C6 values for interpolation:

         atom   Coordination number   C6
         H          0.912             6.05
         H          0.000            15.18
         C          0.000            98.23
         C          0.987            86.49
         C          1.998            58.72
         C          2.999            51.56
         C          3.984            36.41
         N          0.000            50.54
         N          0.994            44.25
         N          2.014            39.35
         N          2.990            31.16
         I          0.000           703.93
         I          0.997           717.00
         Pb         0.000          1477.63
         Pb         0.938          1266.00
         Pb         1.936          1088.91
         Pb         2.908          1048.37
         Pb         3.910           910.57

       Values used:

         atom   Coordination number  R0_AB[au]  C6      C8
         Pb         4.799            4.041    910.57 144158.42
         Pb         4.803            4.041    910.57 144158.41
         Pb         4.822            4.041    910.57 144158.37
         Pb         4.835            4.041    910.57 144158.34
         Pb         4.822            4.041    910.57 144158.37
         Pb         4.818            4.041    910.57 144158.37
         Pb         4.851            4.041    910.57 144158.31
         Pb         4.847            4.041    910.57 144158.32
         I          1.930            3.532    717.00  65855.99
         I          1.965            3.532    717.00  65856.00
         I          1.947            3.532    717.00  65855.99
         I          1.927            3.532    717.00  65855.99
         I          1.964            3.532    717.00  65856.00
         I          1.981            3.532    717.00  65856.00
         I          1.886            3.532    717.00  65855.99
         I          1.949            3.532    717.00  65855.99
         I          1.972            3.532    717.00  65856.00
         I          1.901            3.532    717.00  65855.99
         I          1.959            3.532    717.00  65856.00
         I          1.989            3.532    717.00  65856.00
         I          1.915            3.532    717.00  65855.99
         I          1.981            3.532    717.00  65856.00
         I          1.977            3.532    717.00  65856.00
         I          1.925            3.532    717.00  65855.99
         I          1.987            3.532    717.00  65856.00
         I          1.964            3.532    717.00  65856.00
         I          1.962            3.532    717.00  65856.00
         I          1.996            3.532    717.00  65856.00
         I          1.976            3.532    717.00  65856.00
         I          1.974            3.532    717.00  65856.00
         I          1.990            3.532    717.00  65856.00
         I          2.007            3.532    717.00  65856.00
         C          4.039            2.750     36.59   1058.24
         C          4.042            2.750     36.59   1058.12
         C          4.042            2.750     36.59   1058.12
         C          4.037            2.750     36.59   1058.30
         C          4.040            2.750     36.59   1058.17
         C          4.044            2.750     36.58   1058.04
         C          4.043            2.750     36.58   1058.08
         C          4.047            2.750     36.58   1057.91
         N          4.066            2.478     31.16    687.49
         N          4.060            2.478     31.16    687.49
         N          4.059            2.478     31.16    687.49
         N          4.068            2.478     31.16    687.49
         N          4.062            2.478     31.16    687.49
         N          4.066            2.478     31.16    687.49
         N          4.065            2.478     31.16    687.49
         N          4.060            2.478     31.16    687.49
         H          1.078            2.062      6.13     74.06
         H          1.072            2.062      6.13     74.09
         H          1.053            2.062      6.14     74.23
         H          1.008            2.062      6.17     74.64
         H          1.007            2.062      6.17     74.64
         H          1.007            2.062      6.18     74.65
         H          1.076            2.062      6.13     74.07
         H          1.039            2.062      6.15     74.34
         H          1.073            2.062      6.13     74.09
         H          1.008            2.062      6.17     74.63
         H          1.012            2.062      6.17     74.59
         H          1.008            2.062      6.17     74.63
[...]
         H          1.008            2.062      6.17     74.63
         H          1.008            2.062      6.17     74.63
         H          1.008            2.062      6.17     74.63
         H          1.075            2.062      6.13     74.08
         H          1.070            2.062      6.13     74.10
         H          1.048            2.062      6.14     74.27
         H          1.008            2.062      6.17     74.63
         H          1.008            2.062      6.17     74.63
         H          1.008            2.062      6.17     74.63
         H          1.067            2.062      6.13     74.13
         H          1.037            2.062      6.15     74.36
         H          1.065            2.062      6.13     74.14
         H          1.009            2.062      6.17     74.62
         H          1.015            2.062      6.17     74.56
         H          1.009            2.062      6.17     74.62

         Molecular C6 ( Ry / a.u.^6 ) =   1196385.31

     Subspace diagonalization in iterative solution of the eigenvalue problem:
     a serial algorithm will be used

     bravais-lattice index     =            0
     lattice parameter (alat)  =      24.1526  a.u.
     unit-cell volume          =   13498.7783 (a.u.)^3
     number of atoms/cell      =           96
     number of atomic types    =            5
     number of electrons       =       400.00
     number of Kohn-Sham states=          200
     kinetic-energy cutoff     =     120.0000  Ry
     charge density cutoff     =     480.0000  Ry
     convergence threshold     =      1.0E-07
     mixing beta               =       0.7000
     number of iterations used =            8  plain     mixing
     Exchange-correlation      = SLA PW PBX PBC ( 1  4  3  4 0 0)
     nstep                     =          150

     celldm(1)=  24.152590  celldm(2)=   0.000000  celldm(3)=   0.000000
     celldm(4)=   0.000000  celldm(5)=   0.000000  celldm(6)=   0.000000

     crystal axes: (cart. coord. in units of alat)
               a(1) = (   1.002930   0.000000   0.000000 )
               a(2) = (   0.000000   0.985260   0.000000 )
               a(3) = (   0.000000   0.000000   0.969576 )

     reciprocal axes: (cart. coord. in units 2 pi/alat)
               b(1) = (  0.997079  0.000000  0.000000 )
               b(2) = (  0.000000  1.014960  0.000000 )
               b(3) = (  0.000000  0.000000  1.031379 )

     PseudoPot. # 1 for Pb read from file:
     ../Pseudopotential/Pb.pbe-dn-kjpaw_psl.1.0.0.UPF
     MD5 check sum: 684fc8fbce61a260853528575e4d9ab7
     Pseudo is Projector augmented-wave + core cor, Zval = 14.0
     Generated using "atomic" code by A. Dal Corso v.6.3
     Shape of augmentation charge: PSQ
     Using radial grid of 1281 points,  6 beta functions with:
                l(1) =   0
                l(2) =   0
                l(3) =   1
                l(4) =   1
                l(5) =   2
                l(6) =   2
     Q(r) pseudized with 0 coefficients

     PseudoPot. # 2 for I  read from file:
     ../Pseudopotential/I.pbe-n-kjpaw_psl.1.0.0.UPF
     MD5 check sum: cd3d296c3308a581e1559a0c8a554cb5
     Pseudo is Projector augmented-wave + core cor, Zval =  7.0
     Generated using "atomic" code by A. Dal Corso v.6.3
     Shape of augmentation charge: PSQ
     Using radial grid of 1247 points,  6 beta functions with:
                l(1) =   0
                l(2) =   0
                l(3) =   1
                l(4) =   1
                l(5) =   2
                l(6) =   2
     Q(r) pseudized with 0 coefficients

     PseudoPot. # 3 for C  read from file:
     ../Pseudopotential/C.pbe-n-kjpaw_psl.1.0.0.UPF
     MD5 check sum: 5f16ad9a65e90284d1d834d4ab3b0f7d
     Pseudo is Projector augmented-wave + core cor, Zval =  4.0
     Generated using "atomic" code by A. Dal Corso v.6.3
     Shape of augmentation charge: PSQ
     Using radial grid of 1073 points,  4 beta functions with:
                l(1) =   0
                l(2) =   0
                l(3) =   1
                l(4) =   1
     Q(r) pseudized with 0 coefficients

     PseudoPot. # 4 for N  read from file:
     ../Pseudopotential/N.pbe-n-kjpaw_psl.1.0.0.UPF
     MD5 check sum: 14c48229446f9f2d411169a3abcbc3fa
     Pseudo is Projector augmented-wave + core cor, Zval =  5.0
     Generated using "atomic" code by A. Dal Corso v.6.3
     Shape of augmentation charge: PSQ
     Using radial grid of 1085 points,  4 beta functions with:
                l(1) =   0
                l(2) =   0
                l(3) =   1
                l(4) =   1
     Q(r) pseudized with 0 coefficients

     PseudoPot. # 5 for H  read from file:
     ../Pseudopotential/H.pbe-kjpaw_psl.1.0.0.UPF
     MD5 check sum: d81a744832360e4a8af0b0b5b123bc2a
     Pseudo is Projector augmented-wave, Zval =  1.0
     Generated using "atomic" code by A. Dal Corso v.6.3MaX
     Shape of augmentation charge: PSQ
     Using radial grid of  929 points,  2 beta functions with:
                l(1) =   0
                l(2) =   0
     Q(r) pseudized with 0 coefficients

     atomic species   valence    mass     pseudopotential
        Pb            14.00   207.97600     Pb( 1.00)
        I              7.00   126.90400     I ( 1.00)
        C              4.00    12.00000     C ( 1.00)
        N              5.00    14.00300     N ( 1.00)
        H              1.00     1.00700     H ( 1.00)

     No symmetry found

   Cartesian axes

[...]
        19           I   tau(  19) = (   0.0163023   0.7438550   0.5299921  )
        20           I   tau(  20) = (   0.0336423   0.4392404   0.7274626  )
        21           I   tau(  21) = (   0.7551403   0.0248181   0.0315964  )
        22           I   tau(  22) = (   0.5198966   0.2480561  -0.0403162  )
        23           I   tau(  23) = (   0.4627782   0.0519369   0.2431977  )
        24           I   tau(  24) = (   0.7531862   0.0259765   0.4532065  )
        25           I   tau(  25) = (   0.5186804   0.2486833   0.5299297  )
        26           I   tau(  26) = (   0.5350667  -0.0502143   0.7280786  )
        27           I   tau(  27) = (   0.7578491   0.5124751  -0.0294440  )
        28           I   tau(  28) = (   0.5302583   0.7409050   0.0469650  )
        29           I   tau(  29) = (   0.5405754   0.4445084   0.2451151  )
        30           I   tau(  30) = (   0.7561863   0.5143998   0.5170782  )
        31           I   tau(  31) = (   0.5275532   0.7414427   0.4423124  )
        32           I   tau(  32) = (   0.4742313   0.5389530   0.7300424  )
        33           C   tau(  33) = (   0.2773065   0.2880517   0.2456891  )
        34           C   tau(  34) = (   0.2860198   0.2883164   0.7304887  )
        35           C   tau(  35) = (   0.2908747   0.7820776   0.2436868  )
        36           C   tau(  36) = (   0.2706596   0.7649722   0.7191152  )
        37           C   tau(  37) = (   0.7910354   0.2878292   0.2394345  )
        38           C   tau(  38) = (   0.7734572   0.2836386   0.7272932  )
        39           C   tau(  39) = (   0.7872111   0.7754200   0.2441683  )
        40           C   tau(  40) = (   0.7863577   0.7873252   0.7254012  )
        41           N   tau(  41) = (   0.2148740   0.1894550   0.2442825  )
        42           N   tau(  42) = (   0.2029500   0.2062236   0.7292766  )
        43           N   tau(  43) = (   0.2038398   0.7041149   0.2448167  )
        44           N   tau(  44) = (   0.2167743   0.6616192   0.7274353  )
        45           N   tau(  45) = (   0.7038708   0.2101229   0.2417065  )
        46           N   tau(  46) = (   0.7110426   0.1850231   0.7288382  )
        47           N   tau(  47) = (   0.7214378   0.6789677   0.2453909  )
        48           N   tau(  48) = (   0.7062426   0.7024083   0.7293940  )
        49           H   tau(  49) = (   0.1666665   0.1868285   0.1786082  )
        50           H   tau(  50) = (   0.1659586   0.1855040   0.3093005  )
        51           H   tau(  51) = (   0.2639393   0.1247443   0.2439488  )
        52           H   tau(  52) = (   0.3269798   0.2902930   0.1760540  )
        53           H   tau(  53) = (   0.3258975   0.2889315   0.3161233  )
        54           H   tau(  54) = (   0.2235579   0.3546613   0.2458843  )
        55           H   tau(  55) = (   0.2090400   0.1586751   0.6631976  )
        56           H   tau(  56) = (   0.1291490   0.2398093   0.7296272  )
        57           H   tau(  57) = (   0.2089179   0.1569435   0.7940512  )
        58           H   tau(  58) = (   0.2770598   0.3375158   0.6610117  )
        59           H   tau(  59) = (   0.3626237   0.2502820   0.7300660  )
        60           H   tau(  60) = (   0.2768839   0.3356173   0.8012583  )
[...]
        82           H   tau(  82) = (   0.8217857   0.2845514   0.6567001  )
        83           H   tau(  83) = (   0.8232600   0.2858633   0.7968149  )
        84           H   tau(  84) = (   0.7197279   0.3502373   0.7272525  )
        85           H   tau(  85) = (   0.6719490   0.6771091   0.1806700  )
        86           H   tau(  86) = (   0.6735969   0.6773756   0.3112931  )
        87           H   tau(  87) = (   0.7682304   0.6127141   0.2449621  )
        88           H   tau(  88) = (   0.8353848   0.7749443   0.1734522  )
        89           H   tau(  89) = (   0.8372762   0.7755230   0.3135710  )
        90           H   tau(  90) = (   0.7358669   0.8438679   0.2445376  )
        91           H   tau(  91) = (   0.7117155   0.6532232   0.6645844  )
        92           H   tau(  92) = (   0.6314311   0.7335763   0.7310668  )
        93           H   tau(  93) = (   0.7154759   0.6552037   0.7952543  )
        94           H   tau(  94) = (   0.7731751   0.8340736   0.6549105  )
        95           H   tau(  95) = (   0.8641739   0.7519634   0.7233643  )
        96           H   tau(  96) = (   0.7778645   0.8363661   0.7950330  )

     number of k points=    32
                       cart. coord. in units 2pi/alat
        k(    1) = (   0.1246139   0.1268917   0.1289260), wk =   0.0625000
        k(    2) = (   0.1246139   0.1268917   0.3867780), wk =   0.0625000
        k(    3) = (   0.1246139   0.3806751   0.1289260), wk =   0.0625000
        k(    4) = (   0.1246139   0.3806751   0.3867780), wk =   0.0625000
        k(    5) = (   0.3738418   0.1268917   0.1289260), wk =   0.0625000
        k(    6) = (   0.3738418   0.1268917   0.3867780), wk =   0.0625000
        k(    7) = (   0.3738418   0.3806751   0.1289260), wk =   0.0625000
        k(    8) = (   0.3738418   0.3806751   0.3867780), wk =   0.0625000
        k(    9) = (  -0.1246139  -0.1268917   0.1289260), wk =   0.0625000
        k(   10) = (  -0.1246139   0.1268917  -0.1289260), wk =   0.0625000
        k(   11) = (   0.1246139  -0.1268917  -0.1289260), wk =   0.0625000
        k(   12) = (  -0.1246139  -0.1268917   0.3867780), wk =   0.0625000
        k(   13) = (  -0.1246139   0.1268917  -0.3867780), wk =   0.0625000
        k(   14) = (   0.1246139  -0.1268917  -0.3867780), wk =   0.0625000
        k(   15) = (  -0.1246139  -0.3806751   0.1289260), wk =   0.0625000
        k(   16) = (  -0.1246139   0.3806751  -0.1289260), wk =   0.0625000
        k(   17) = (   0.1246139  -0.3806751  -0.1289260), wk =   0.0625000
        k(   18) = (  -0.1246139  -0.3806751   0.3867780), wk =   0.0625000
        k(   19) = (  -0.1246139   0.3806751  -0.3867780), wk =   0.0625000
        k(   20) = (   0.1246139  -0.3806751  -0.3867780), wk =   0.0625000
        k(   21) = (  -0.3738418  -0.1268917   0.1289260), wk =   0.0625000
        k(   22) = (  -0.3738418   0.1268917  -0.1289260), wk =   0.0625000
        k(   23) = (   0.3738418  -0.1268917  -0.1289260), wk =   0.0625000
        k(   24) = (  -0.3738418  -0.1268917   0.3867780), wk =   0.0625000
        k(   25) = (  -0.3738418   0.1268917  -0.3867780), wk =   0.0625000
        k(   26) = (   0.3738418  -0.1268917  -0.3867780), wk =   0.0625000
        k(   27) = (  -0.3738418  -0.3806751   0.1289260), wk =   0.0625000
        k(   28) = (  -0.3738418   0.3806751  -0.1289260), wk =   0.0625000
        k(   29) = (   0.3738418  -0.3806751  -0.1289260), wk =   0.0625000
        k(   30) = (  -0.3738418  -0.3806751   0.3867780), wk =   0.0625000
        k(   31) = (  -0.3738418   0.3806751  -0.3867780), wk =   0.0625000
        k(   32) = (   0.3738418  -0.3806751  -0.3867780), wk =   0.0625000

     Initial potential from superposition of free atoms

     starting charge  399.97850, renormalised to  400.00000
     Starting wfcs are  280 randomized atomic wfcs
     Checking if some PAW data can be deallocated...

     Self-consistent Calculation

[...]

     total energy              =  -16491.15717635 Ry
     Harris-Foulkes estimate   =  -16491.15717640 Ry
     estimated scf accuracy    <          3.5E-09 Ry

     iteration # 13     ecut=   120.00 Ry     beta= 0.70
     Davidson diagonalization with overlap
     ethr =  8.78E-13,  avg # of iterations =  3.0

     End of self-consistent calculation

[...]

          k =-0.3738 0.3807-0.3868 (299636 PWs)   bands (ev):

[...]

          k = 0.3738-0.3807-0.3868 (299636 PWs)   bands (ev):

   -17.5020 -17.4866 -17.4503 -17.4287 -17.4263 -17.4257 -17.4193 -17.4167
   -14.2898 -14.2833 -14.2807 -14.2789 -14.2768 -14.2741 -14.2714 -14.2681
   -14.2675 -14.2667 -14.2659 -14.2628 -14.2619 -14.2584 -14.2522 -14.2519
   -14.2514 -14.2452 -14.2432 -14.2427 -14.2424 -14.2418 -14.2415 -14.2403
   -14.2377 -14.2346 -14.2336 -14.2327 -14.2326 -14.2317 -14.2302 -14.2291
   -14.2284 -14.2275 -14.2247 -14.2237 -14.2196 -14.2180 -14.2148 -14.2070
   -10.4858 -10.4670 -10.4536 -10.4492 -10.4443 -10.4338 -10.4201 -10.4141
    -9.5920  -9.5276  -9.5043  -9.4884  -9.4603  -9.4495  -9.4387  -9.4007
    -9.2443  -9.2123  -9.1966  -9.1887  -9.1761  -9.1512  -9.1448  -9.1281
    -9.1209  -9.0993  -9.0939  -9.0859  -9.0719  -9.0571  -9.0370  -9.0108
    -6.9712  -6.9503  -6.9423  -6.9388  -6.9350  -6.9236  -6.9128  -6.9103
    -6.8964  -6.8734  -6.8153  -6.8031  -6.7945  -6.7899  -6.7849  -6.7805
    -5.5459  -5.3870  -5.3690  -5.3614  -5.2164  -5.2057  -5.1972  -5.0336
    -4.8381  -4.8227  -4.8019  -4.7938  -4.7904  -4.7874  -4.7632  -4.7571
    -2.7875  -2.7731  -2.7712  -2.7532  -2.7489  -2.7447  -2.7418  -2.7368
    -2.7298  -2.7242  -2.7186  -2.7113  -2.7000  -2.6944  -2.6936  -2.6849
    -0.6099  -0.5405  -0.4782  -0.4569  -0.4232  -0.3654  -0.3349  -0.3207
    -0.2862  -0.2723  -0.2020  -0.1761   0.0029   0.0291   0.0624   0.0816
     0.1218   0.2041   0.2181   0.2273   0.3074   0.3301   0.3426   0.3537
     0.5577   0.6137   0.6352   0.6700   0.6832   0.7053   0.7367   0.7432
     0.7693   0.8039   0.8424   0.8536   0.8848   0.8981   0.9142   0.9217
     0.9553   0.9722   0.9899   1.0087   1.0283   1.0498   1.0914   1.1195
     1.2359   1.2678   1.2791   1.2917   1.2985   1.3062   1.3355   1.3768
     1.4061   1.4159   1.4272   1.4400   1.4544   1.4577   1.4676   1.4834
     1.5031   1.5221   1.5330   1.5385   1.5465   1.5741   1.6428   1.6648

     highest occupied level (ev):     2.0735

!    total energy              =  -16491.15717629 Ry
     Harris-Foulkes estimate   =  -16491.15717635 Ry
     estimated scf accuracy    <          3.6E-10 Ry

     total all-electron energy =   -677247.826441 Ry

     The total energy is the sum of the following terms:

     one-electron contribution =    -826.47634139 Ry
     hartree contribution      =     599.19042736 Ry
     xc contribution           =    -755.73465998 Ry
     ewald contribution        =   -1153.30706942 Ry
     DFT-D3 Dispersion         =      -0.62621504 Ry
     one-center paw contrib.   =  -14354.20331783 Ry

     convergence has been achieved in  13 iterations

     Forces acting on atoms (cartesian axes, Ry/au):

     atom    1 type  1   force =    -0.00001446    0.00003063   -0.00003152
     atom    2 type  1   force =    -0.00003212    0.00007778    0.00000415
     atom    3 type  1   force =     0.00001030   -0.00001050    0.00002157
     atom    4 type  1   force =     0.00000895   -0.00005141   -0.00002505
     atom    5 type  1   force =     0.00001092    0.00001096   -0.00002169
     atom    6 type  1   force =    -0.00001580   -0.00002081    0.00001933
     atom    7 type  1   force =    -0.00000451   -0.00000439   -0.00000837
     atom    8 type  1   force =     0.00000732    0.00001286    0.00000531
     atom    9 type  2   force =     0.00005613    0.00006477   -0.00000106
     atom   10 type  2   force =    -0.00003439    0.00000264    0.00002231
     atom   11 type  2   force =    -0.00004414   -0.00004327   -0.00000208
     atom   12 type  2   force =     0.00002914    0.00006074    0.00002403
     atom   13 type  2   force =    -0.00000893    0.00000964   -0.00003673
     atom   14 type  2   force =    -0.00005623    0.00003580   -0.00000057
     atom   15 type  2   force =    -0.00000857    0.00000580    0.00004897
     atom   16 type  2   force =     0.00000485   -0.00001244    0.00000714
     atom   17 type  2   force =    -0.00003400    0.00006839    0.00003519
     atom   18 type  2   force =     0.00002054   -0.00000382   -0.00002122
     atom   19 type  2   force =    -0.00001068   -0.00000916    0.00000913
     atom   20 type  2   force =     0.00000479   -0.00007414    0.00000742
     atom   21 type  2   force =     0.00006784    0.00000258    0.00000115
     atom   22 type  2   force =     0.00001568   -0.00003082    0.00001859
     atom   23 type  2   force =     0.00006635    0.00000983    0.00004297
     atom   24 type  2   force =     0.00002557    0.00001964   -0.00000014
     atom   25 type  2   force =     0.00001155   -0.00003033    0.00003636
     atom   26 type  2   force =    -0.00003381   -0.00003751    0.00000987
     atom   27 type  2   force =     0.00004453    0.00004408   -0.00001457
     atom   28 type  2   force =    -0.00003473   -0.00000371   -0.00003325
     atom   29 type  2   force =     0.00001000   -0.00005006    0.00001453
     atom   30 type  2   force =    -0.00001856    0.00004750    0.00003969
     atom   31 type  2   force =     0.00002380   -0.00002113    0.00001390
     atom   32 type  2   force =     0.00004711    0.00005477    0.00004072
     atom   33 type  3   force =     0.00002384    0.00004935   -0.00003656
     atom   34 type  3   force =    -0.00003273   -0.00001098    0.00002891
     atom   35 type  3   force =     0.00005010    0.00007545    0.00001947
     atom   36 type  3   force =    -0.00000038    0.00001990   -0.00001121
     atom   37 type  3   force =     0.00002205    0.00002818   -0.00000167
     atom   38 type  3   force =     0.00003653    0.00000436   -0.00001373
     atom   39 type  3   force =     0.00003341   -0.00002569   -0.00001588
     atom   40 type  3   force =     0.00002754    0.00000749   -0.00001440
     atom   41 type  4   force =     0.00005627    0.00004962    0.00004727
     atom   42 type  4   force =     0.00001872   -0.00002480   -0.00003112
     atom   43 type  4   force =     0.00004043    0.00003304   -0.00004566
     atom   44 type  4   force =    -0.00000418    0.00000096   -0.00000942
     atom   45 type  4   force =     0.00004439    0.00002075   -0.00001608
     atom   46 type  4   force =     0.00000878    0.00008295    0.00000003
     atom   47 type  4   force =    -0.00003673    0.00004821    0.00004017
     atom   48 type  4   force =    -0.00001612   -0.00001739    0.00000170
     atom   49 type  5   force =     0.00000646   -0.00005077   -0.00002081
     atom   50 type  5   force =    -0.00000324   -0.00004442   -0.00006872
     atom   51 type  5   force =    -0.00009737    0.00009190    0.00001957
     atom   52 type  5   force =    -0.00001475    0.00000560   -0.00004736
     atom   53 type  5   force =     0.00000362   -0.00002509    0.00007081
     atom   54 type  5   force =    -0.00004263   -0.00007117    0.00002986
     atom   55 type  5   force =     0.00000237    0.00002801   -0.00003275
     atom   56 type  5   force =     0.00000830   -0.00002770   -0.00000588
     atom   57 type  5   force =     0.00000169    0.00002024    0.00002433
     atom   58 type  5   force =     0.00000883   -0.00001597    0.00002291
     atom   59 type  5   force =    -0.00002100    0.00003046    0.00000853
     atom   60 type  5   force =    -0.00001023   -0.00001680   -0.00000040
[...]
     atom   82 type  5   force =    -0.00000717    0.00000485   -0.00002982
     atom   83 type  5   force =    -0.00002183   -0.00001494    0.00003472
     atom   84 type  5   force =    -0.00001726   -0.00007905    0.00000673
     atom   85 type  5   force =     0.00001802   -0.00006208   -0.00003560
     atom   86 type  5   force =     0.00000196   -0.00004291   -0.00003443
     atom   87 type  5   force =     0.00000775    0.00005904    0.00000626
     atom   88 type  5   force =    -0.00002771    0.00003974   -0.00000305
     atom   89 type  5   force =    -0.00000761   -0.00001771    0.00004528
     atom   90 type  5   force =    -0.00002645   -0.00006591    0.00004854
     atom   91 type  5   force =     0.00001543   -0.00001637   -0.00008863
     atom   92 type  5   force =     0.00001109   -0.00003630   -0.00002843
     atom   93 type  5   force =    -0.00000768   -0.00000368    0.00003533
     atom   94 type  5   force =    -0.00000479    0.00001114   -0.00003330
     atom   95 type  5   force =     0.00001623   -0.00000892   -0.00000927
     atom   96 type  5   force =    -0.00002476    0.00000442    0.00005298

     Total force =     0.000561     Total SCF correction =     0.000069
     SCF correction compared to forces is large: reduce conv_thr to get better values

     Computing stress (Cartesian axis) and pressure

          total   stress  (Ry/bohr**3)                   (kbar)     P=   -0.00
  -0.00000006   0.00000597   0.00000109         -0.01      0.88      0.16
   0.00000597  -0.00000012  -0.00000076          0.88     -0.02     -0.11
   0.00000109  -0.00000076   0.00000015          0.16     -0.11      0.02

     Writing output data file MAPbI_vcrelax_PAW14.save/

     General routines

     Parallel routines

   This run was terminated on:   6:43:39   6May2020

   JOB DONE.